#TARGVOL=2
 
%BLOCK POSITIONS_FRAC
H 0.0 0.0 0.0 # H1 % NUM=48
%ENDBLOCK POSITIONS_FRAC
 
#SLACK=0.25
#OVERLAP=0.1
#MINSEP=1
#COMPACT
