%BLOCK LATTICE_CART
2.154433 0 0
0 2.154433 0
0 0 2.154433
%ENDBLOCK LATTICE_CART
 
#VARVOL=10
 
%BLOCK POSITIONS_FRAC
H 0.0 0.0 0.0 # H1 % NUM=1
%ENDBLOCK POSITIONS_FRAC
 
##SPECIES=H
##NATOM=3-9
##FOCUS=1
 
#SYMMOPS=2-4
##SGRANK=20
#NFORM=1
##ADJGEN=0-1
##SLACK=0.25
##OVERLAP=0.1
#MINSEP=1-3 AUTO
#COMPACT
##SYSTEM={Rhom,Tric,Mono,Cubi,Hexa,Orth,Tetra}
 
KPOINTS_MP_SPACING 0.03
 
SYMMETRY_GENERATE
SNAP_TO_SYMMETRY
 
%BLOCK SPECIES_POT
%ENDBLOCK SPECIES_POT
 
%BLOCK EXTERNAL_PRESSURE
0 0 0
0 0
0
%ENDBLOCK EXTERNAL_PRESSURE
