&CONTROL
title="replay"
calculation='scf',
restart_mode = 'from_scratch',
prefix='pbe',
pseudo_dir='../pseudo'     
tstress=.true.
tprnfor=.true.
etot_conv_thr=1.0D-4
forc_conv_thr=1.0D-3    
/
&SYSTEM
ibrav = 1,                             
celldm(1) =  CELLSIZE,        
nat = 128,                         
ntyp = 1,                         
ecutwfc = 80.0 ,                
occupations = 'smearing'    
degauss =   2.000000000000000E-003         
/
&ELECTRONS
conv_thr  = 1.D-4,             
/
&IONS                 
/

ATOMIC_SPECIES
           
H 1.0000  H.pbe-kjpaw.UPF      

ATOMIC_POSITIONS bohr          
H 11.13358 2.563068 -0.9476479
H 12.23845 16.49569 0.6573598
H 4.166445 7.65369 2.817332
H 14.92572 10.7435 -0.5460996
H 16.09931 9.254275 1.385941
H 13.06753 5.799679 -1.316391
H 15.28746 11.20087 4.011162
H 8.046665 11.61112 -16.48944
H 16.20998 6.870582 1.873627
H 11.49788 3.928777 -7.93971
H 7.396416 8.436429 -6.907402
H 10.39602 11.33808 6.42911
H 4.56168 11.25525 -3.081696
H 15.13689 9.858018 4.986384
H 12.89499 12.09686 2.734979
H 17.27692 15.86016 3.482419
H 5.465702 10.15866 2.702443
H 13.58582 10.40799 3.11036
H 6.717968 11.95855 -0.5022352
H 11.39545 9.289434 0.08878013
H 10.39529 7.948069 -9.228843
H 12.22276 11.02394 -10.8961
H 18.31347 4.735957 -5.352116
H 15.5288 7.98828 -5.901859
H 7.920832 8.05947 -1.641675
H 11.77887 8.619972 -2.843172
H 14.16036 16.15471 -4.505226
H 12.34719 12.10204 0.2735512
H 20.17894 3.671077 1.206223
H 9.302746 11.92616 -10.23935
H 19.00634 8.227783 -9.469759
H 21.33967 11.0891 -1.880694
H 9.046382 16.55835 -7.831665
H 6.756915 7.291242 6.923915
H 16.20607 15.47899 -9.322768
H 13.53097 -5.341613 -7.82348
H 16.95197 3.081507 4.406432
H 8.623371 6.009048 -3.289637
H 12.68508 8.457955 -5.159179
H 4.67192 8.333303 -2.838324
H 12.95254 10.57221 -2.365275
H 9.281719 8.282655 -5.582768
H 11.54142 2.91342 -3.617911
H 16.09435 2.107987 1.481427
H 6.36226 2.54781 -1.896769
H 13.94807 1.747594 -2.366465
H 13.07873 6.977726 -6.642425
H 7.850728 1.840354 -7.864013
H 13.35193 13.64138 0.6256301
H 12.63976 3.348917 5.084029
H 9.239234 4.935159 -5.209153
H 10.50648 5.420138 -7.449035
H 10.59883 7.098132 -5.530383
H 14.89787 13.40389 -4.236424
H 19.90099 10.00436 -4.640319
H 11.86709 10.57985 -5.330145
H 8.196292 13.77643 -0.1620325
H 6.177739 9.061378 -6.211158
H 5.105328 12.8786 -7.372071
H 12.53206 8.01398 -0.3238021
H 14.19334 3.354735 -0.7413135
H 15.70845 4.037544 4.08539
H 9.552799 9.846935 -1.223584
H 14.76189 11.91173 1.188867
H 9.494167 6.327264 -10.11591
H 18.2736 11.05707 2.955075
H 13.96907 6.874306 -1.908911
H 16.63882 12.31787 -4.105854
H 5.881734 6.580196 -5.393278
H 18.15059 9.831662 -3.639459
H 9.974396 3.929601 -3.846964
H 18.03518 3.208465 1.358709
H 15.5636 8.73758 -0.5087384
H 14.40409 4.555543 -9.478571
H 6.908387 -0.175953 0.5106229
H 19.26154 9.938878 1.043473
H 9.46263 -0.9724763 -6.962131
H 12.99679 8.791749 -8.435996
H 12.07925 12.18172 -2.926845
H 19.13086 15.19394 -2.292279
H 9.197898 7.578761 -3.283622
H 10.74234 10.16235 -9.255426
H 11.24082 4.26654 -1.629718
H 5.495684 9.351312 6.949149
H 11.50246 9.250808 -6.570507
H 9.190495 12.73979 -1.488982
H 17.35708 7.805506 0.3917696
H 16.69937 11.04702 -1.763673
H 6.340758 7.751109 -1.425245
H 3.090429 3.016995 2.56834
H 13.55212 4.112664 -3.01687
H 9.96044 15.59894 -0.1825631
H 13.6818 9.126515 -1.885449
H 13.99668 8.692113 -10.12784
H 7.83756 6.532343 4.66537
H 7.191633 14.04763 -4.433793
H 13.99813 10.21578 6.801008
H 10.71258 -1.649313 -3.730893
H 14.52981 5.630681 -6.33831
H 9.715895 1.997804 -4.832611
H 11.63832 14.37466 1.336194
H 10.61319 11.05388 -7.029488
H 10.24819 -3.070283 -1.243382
H 8.272265 1.965863 -3.213168
H 11.83489 4.490048 -5.888237
H 7.314965 5.203703 -1.044796
H 21.21968 12.34942 -9.379779
H 11.31212 1.825608 -6.16807
H 5.408049 5.184617 -3.538815
H 11.92069 6.340829 1.873496
H 18.15183 5.378427 0.5225778
H 14.07475 7.502005 -4.163108
H 22.102 7.91792 -7.910808
H 11.43027 5.568214 -3.332864
H 15.96805 3.310197 -1.120458
H 15.60517 4.976072 -0.1103528
H 11.63908 6.723319 -4.002038
H 16.01648 3.817935 -4.302932
H 7.894936 10.14594 -2.036063
H 14.90388 6.911483 -0.1012358
H 13.32417 11.62627 -5.276684
H 9.568202 13.46927 3.777002
H 5.284547 16.72934 -2.179463
H 10.60061 6.218772 -1.197599
H 7.229533 17.81176 2.603475
H 13.96055 13.19568 4.856079
H 8.000329 14.44853 3.424628
H 6.404381 11.2447 -5.265838


K_POINTS automatic
4 4 4 1 1 1
